Custom/8312021_21.param
$ LBS instance with n = 21, seed = 8312021
letting cards be [28,49,22,4,38,17,48,16,50,46,25,24,23,0,8,2,7,29,10,39,20]
